1111100 AB
331 357 382 405 428 439 451 461 471 480 492 504 520 534 548 562 576 590 604 625 646 670 694 718 741 763 786 802 818 834 858 882 906 930 954 972 990 1009 1027 1045 1064 1074 1084 1104 1114 1124 1135 1146 1156 1167 1186 1205 1223 1241 1267 1292 1339 1386 1434 41
1111100 BA
329 357 386 396 404 412 425 440 452 468 481 494 505 517 527 546 570 594 618 642 665 688 711 729 747 765 783 806 828 851 877 903 920 937 954 971 989 1007 1020 1033 1044 1056 1065 1075 1093 1102 1111 1130 1150 1170 1195 1222 1249 1299 1347 1394 1
0000011 AB
314 371 423 477 531 558 585 611 638 667 695 709 730 752 806 863 921 948 976 1003 1016 1030 1085 1140 1168 1195 1222 1254 1276 1298 1316 1337 1370 1418 26
0000011 BA
330 369 427 485 511 538 564 592 620 633 647 673 700 757 814 872 901 929 956 969 983 1038 1092 1119 1147 1174 1202 1230 1257 1277 1282 1310 1371 1425
